POSCAR file written by OVITO Basic 3.6.0
1
3.86697465 0.0 0.0
1.933487325 3.3488982827 0.0
1.933487325 1.1162994276 3.1573715803
Si 
2 
Direct
0.75 0.75 0.75
0.5 0.5 0.5
