POSCAR file written by OVITO Basic 3.5.2
   1.00000000000000     
     2.4635741222604626    0.0000058115516854    0.0000000262742315
    -1.2317824084766167    2.1335204410093276   -0.0000000198760574
    -0.0000002262856998   -0.0000001167905748   18.7994989063728006
   C 
     2
Direct
  0.3333331298627595  0.6666668727438895 -0.0000000000348391
  0.6666668701372402  0.3333331272561103  0.0000000000348391
 
  0.00000000E+00  0.00000000E+00  0.00000000E+00
  0.00000000E+00  0.00000000E+00  0.00000000E+00
