POSCAR file written by Ovito 3.0.0-dev349
1
4.0500046618 0.0 0.0
0.0 4.0500046618 0.0
0.0 0.0 4.0500046618
Al 
4 
Direct
1.0 1.0 5.2692225583e-17
0.5 0.5 5.2041704279e-17
0.5 1.0 0.5
1.0 0.5 0.5
Direct
0.0 0.0 0.0
0.0 0.0 0.0
0.0 0.0 0.0
0.0 0.0 0.0
