POSCAR file written by OVITO Basic 3.5.2
   1.00000000000000     
     3.119045833333333      0.0000000000000000    0.0000000000000000
    -1.559522916666666     2.701172927234670      0.0000000000000000
     0.0000000000000000    0.0000000000000000   12.6227000000000000
   Mo   S 
     2     4
Direct
  0.3333333300000021  0.6666666699999979  0.7500000000000000
  0.6666666599999971  0.3333333300000021  0.2500000000000000
  0.3333333300000021  0.6666666699999979  0.1205657709067823
  0.6666666599999971  0.3333333300000021  0.6205657709067823
  0.3333333300000021  0.6666666699999979  0.3794342290932178
  0.6666666699999979  0.3333333400000029  0.8794342290932177
 
  0.00000000E+00  0.00000000E+00  0.00000000E+00
  0.00000000E+00  0.00000000E+00  0.00000000E+00
  0.00000000E+00  0.00000000E+00  0.00000000E+00
  0.00000000E+00  0.00000000E+00  0.00000000E+00
  0.00000000E+00  0.00000000E+00  0.00000000E+00
  0.00000000E+00  0.00000000E+00  0.00000000E+00
