POSCAR file written by OVITO Basic 3.5.2
   1.00000000000000     
     2.46627000000000      0.0000000000000000    0.0000000000000000
    -1.23310000000000     2.135900000000000      0.0000000000000000
     0.00000000000000     0.0000000000000000   50.000000000000
    C 
     2
Direct
  0.3333333300000021  0.6666666699999979  0.500000000000000
  0.6666666599999971  0.3333333300000021  0.500000000000000